TYPE : Vertex Cover
DIMENSION: 33
EDGE_DATA_SECTION:
0 5
0 8
0 9
0 20
0 21
0 25
0 26
0 31
1 2
1 4
1 6
1 7
1 10
1 11
1 12
1 16
1 17
1 19
1 20
1 23
1 24
1 27
1 28
2 3
2 19
2 29
3 4
3 7
3 8
3 14
4 9
4 13
4 21
4 25
4 30
5 6
5 12
5 15
5 19
5 20
5 24
5 29
5 30
6 7
6 9
6 16
6 20
6 28
7 11
7 14
7 22
7 31
8 16
8 21
8 25
8 29
9 10
9 13
9 16
9 17
9 20
9 23
9 30
9 31
10 11
10 12
10 16
10 17
10 21
10 25
10 30
11 13
11 20
11 22
11 27
11 32
12 16
12 24
12 25
12 27
12 30
12 32
13 16
13 17
13 24
14 17
14 23
14 27
14 30
15 16
15 18
15 21
15 23
15 29
16 30
17 20
17 21
17 27
17 28
17 29
18 19
18 20
18 25
18 27
18 28
19 22
19 31
20 21
20 22
20 31
21 23
21 26
21 29
21 31
21 32
22 27
22 29
23 24
23 31
24 25
24 26
24 29
24 31
25 28
25 32
26 28
26 29
28 31
29 32
31 32
-1
VERTEX_DEGREE:
8.0 15.0 4.0 5.0 7.0 9.0 7.0 7.0 6.0 11.0 9.0 8.0 9.0 6.0 6.0 6.0 9.0 10.0 6.0 6.0 11.0 12.0 6.0 7.0 9.0 9.0 5.0 7.0 7.0 10.0 7.0 10.0 6.0
VERTEX_COVER:
0 1 2 3 5 6 9 11 12 13 14 16 17 18 21 22 23 25 26 29 30 31
EOF
